NAME: concorde10
TYPE: TSP
COMMENT: Generated by CCutil_writetsplib
DIMENSION: 10
EDGE_WEIGHT_TYPE: EUC_2D
NODE_COORD_SECTION
1 54.318126 58.153817
2 50.838802 54.034392
3 63.233895 63.303099
4 57.579993 72.915092
5 52.940894 46.138826
6 50.983774 36.870119
7 57.290049 33.093979
8 58.543984 88.492063
9 72.295248 89.285714
10 68.452881 54.720963
